certificates/rado_a9_c74_N16.cnf
c Rad2 upper bound instance: x1 + 9*x2 - x3 = 74, interval [1,16]
p cnf 16 56
1 8 9 0
-1 -8 -9 0
2 9 0
-2 -9 0
1 3 8 0
-1 -3 -8 0
3 9 10 0
-3 -9 -10 0
2 4 8 0
-2 -4 -8 0
4 9 11 0
-4 -9 -11 0
3 5 8 0
-3 -5 -8 0
5 9 12 0
-5 -9 -12 0
4 6 8 0
-4 -6 -8 0
6 9 13 0
-6 -9 -13 0
5 7 8 0
-5 -7 -8 0
7 9 14 0
-7 -9 -14 0
6 8 0
-6 -8 0
8 9 15 0
-8 -9 -15 0
7 8 9 0
-7 -8 -9 0
9 16 0
-9 -16 0
8 10 0
-8 -10 0
8 9 11 0
-8 -9 -11 0
1 7 12 0
-1 -7 -12 0
8 10 12 0
-8 -10 -12 0
2 7 13 0
-2 -7 -13 0
8 11 13 0
-8 -11 -13 0
3 7 14 0
-3 -7 -14 0
8 12 14 0
-8 -12 -14 0
4 7 15 0
-4 -7 -15 0
8 13 15 0
-8 -13 -15 0
5 7 16 0
-5 -7 -16 0
8 14 16 0
-8 -14 -16 0
