certificates/rado_a9_c74_N16.drat
8 -16 0
-16 0
9 0
-2 0
7 1 0
d 7 12 1 0
-8 0
6 0
10 0
14 0
4 0
-13 0
-3 0
-7 0
-11 0
15 0
0
